2025-10-11 22:02:22,031 - INFO - 📌 第一个 epoch：默认所有模块使用 checkpoint
2025-10-11 22:02:26,019 - INFO - Epoch 1 completed in 3.992142 seconds
2025-10-11 22:02:26,720 - INFO - torch.cuda.max_memory_reserved() : 1.029296875
2025-10-11 22:02:30,238 - INFO - 
[🔁 拟合反向传播时间模型]
2025-10-11 22:02:30,238 - INFO - 总反向传播时间: 3.506163s
2025-10-11 22:02:30,238 - INFO - 拟合模型: backward_total ≈ 2 × (A + B) + b
2025-10-11 22:02:30,238 - INFO - A = 2.269566, B = 0.204955, b = 1.031642s
2025-10-11 22:02:30,282 - INFO - Set parameter LicenseID to value 2706656
2025-10-11 22:02:30,286 - INFO - Set parameter LogToConsole to value 1
2025-10-11 22:02:30,286 - INFO - Set parameter LogFile to value ""
2025-10-11 22:02:30,286 - INFO - Set parameter Threads to value 12
2025-10-11 22:02:30,286 - INFO - Set parameter TimeLimit to value 3600
2025-10-11 22:02:30,286 - INFO - Set parameter OptimalityTol to value 0.0001
2025-10-11 22:02:30,286 - INFO - Set parameter IntFeasTol to value 1e-05
2025-10-11 22:02:30,286 - INFO - Set parameter StartNodeLimit to value 10000000
2025-10-11 22:02:30,346 - INFO - Set parameter TimeLimit to value 3600
2025-10-11 22:02:30,346 - INFO - 
2025-10-11 22:02:30,346 - INFO - 
2025-10-11 22:02:30,346 - INFO - Restarting solve
2025-10-11 22:02:30,346 - INFO - 
2025-10-11 22:02:30,346 - INFO - 
2025-10-11 22:02:30,347 - INFO - Gurobi Optimizer version 12.0.3 build v12.0.3rc0 (linux64 - "Ubuntu 20.04.6 LTS")
2025-10-11 22:02:30,348 - INFO - 
2025-10-11 22:02:30,348 - INFO - CPU model: Intel(R) Xeon(R) Platinum 8260 CPU @ 2.40GHz, instruction set [SSE2|AVX|AVX2|AVX512]
2025-10-11 22:02:30,348 - INFO - Thread count: 48 physical cores, 96 logical processors, using up to 12 threads
2025-10-11 22:02:30,348 - INFO - 
2025-10-11 22:02:30,348 - INFO - Non-default parameters:
2025-10-11 22:02:30,348 - INFO - TimeLimit  3600
2025-10-11 22:02:30,348 - INFO - OptimalityTol  0.0001
2025-10-11 22:02:30,348 - INFO - StartNodeLimit  10000000
2025-10-11 22:02:30,348 - INFO - Threads  12
2025-10-11 22:02:30,348 - INFO - 
2025-10-11 22:02:30,348 - INFO - Optimize a model with 5603 rows, 3584 columns and 15200 nonzeros
2025-10-11 22:02:30,348 - INFO - Model fingerprint: 0xbc153294
2025-10-11 22:02:30,348 - INFO - Variable types: 1024 continuous, 2560 integer (2560 binary)
2025-10-11 22:02:30,348 - INFO - Coefficient statistics:
2025-10-11 22:02:30,348 - INFO -   Matrix range     [1e+00, 3e+14]
2025-10-11 22:02:30,348 - INFO -   Objective range  [4e+04, 2e+05]
2025-10-11 22:02:30,348 - INFO -   Bounds range     [1e+00, 1e+15]
2025-10-11 22:02:30,348 - INFO -   RHS range        [1e+00, 1e+15]
2025-10-11 22:02:30,348 - INFO - Warning: Model contains large matrix coefficient range
2025-10-11 22:02:30,348 - INFO - Warning: Model contains large rhs
2025-10-11 22:02:30,348 - INFO - Warning: Model contains large bounds
2025-10-11 22:02:30,349 - INFO -          Consider reformulating model or setting NumericFocus parameter
2025-10-11 22:02:30,349 - INFO -          to avoid numerical issues.
2025-10-11 22:02:30,362 - INFO - Presolve removed 4376 rows and 2059 columns
2025-10-11 22:02:30,362 - INFO - Presolve time: 0.01s
2025-10-11 22:02:30,362 - INFO - Presolved: 1227 rows, 1525 columns, 4322 nonzeros
2025-10-11 22:02:30,363 - INFO - Variable types: 0 continuous, 1525 integer (1091 binary)
2025-10-11 22:02:30,373 - INFO - 
2025-10-11 22:02:30,373 - INFO - Root relaxation: objective 4.070196e+06, 428 iterations, 0.00 seconds (0.00 work units)
2025-10-11 22:02:30,383 - INFO - 
2025-10-11 22:02:30,383 - INFO -     Nodes    |    Current Node    |     Objective Bounds      |     Work
2025-10-11 22:02:30,383 - INFO -  Expl Unexpl |  Obj  Depth IntInf | Incumbent    BestBd   Gap | It/Node Time
2025-10-11 22:02:30,383 - INFO - 
2025-10-11 22:02:30,383 - INFO -      0     0 4070196.50    0   58          - 4070196.50      -     -    0s
2025-10-11 22:02:30,385 - INFO - H    0     0                    4118824.0000 4070196.50  1.18%     -    0s
2025-10-11 22:02:30,413 - INFO -      0     0 4074530.94    0  303 4118824.00 4074530.94  1.08%     -    0s
2025-10-11 22:02:30,433 - INFO -      0     0     cutoff    0      4118824.00 4118824.00  0.00%     -    0s
2025-10-11 22:02:30,433 - INFO - 
2025-10-11 22:02:30,433 - INFO - Explored 1 nodes (718 simplex iterations) in 0.09 seconds (0.05 work units)
2025-10-11 22:02:30,433 - INFO - Thread count was 12 (of 96 available processors)
2025-10-11 22:02:30,433 - INFO - 
2025-10-11 22:02:30,433 - INFO - Solution count 1: 4.11882e+06 
2025-10-11 22:02:30,433 - INFO - 
2025-10-11 22:02:30,433 - INFO - Optimal solution found (tolerance 1.00e-04)
2025-10-11 22:02:30,433 - INFO - Best objective 4.118824000000e+06, best bound 4.118824000000e+06, gap 0.0000%
2025-10-11 22:02:30,444 - INFO - 规划前的显存GB：1.0
2025-10-11 22:02:30,444 - INFO - 规划后的显存GB：0.843235969543457
2025-10-11 22:02:30,444 - INFO - ✅ 最优策略：[1, 1, 1, 1, 1, 0, 0, 1, 0, 1, 0, 0, 0, 0, 0, 0]
2025-10-11 22:02:30,444 - INFO - 📌 checkpoint 的欧氏长度:, [717, 837]
2025-10-11 22:02:30,444 - INFO - 📌 checkpoint 的余弦长度:, [119, 358, 478, 597, 717, 837, 957]
2025-10-11 22:02:30,445 - INFO - 💾 最终显存峰值：%.2f MB % 1780.8826751708984
2025-10-11 22:02:30,445 - INFO - Epoch 2 completed in 3.724734 seconds
2025-10-11 22:02:30,445 - INFO - torch.cuda.max_memory_reserved() : 1.029296875
2025-10-11 22:02:33,562 - INFO - Epoch 3 completed in 3.116174 seconds
2025-10-11 22:02:33,562 - INFO - 
====================== [第1个 Epoch 收集统计数据] ======================
2025-10-11 22:02:33,562 - INFO - 
🔍 EUCLIDEAN modules:
2025-10-11 22:02:33,562 - INFO - [Shapelet 119] forward_avg=0.001897s over 26 calls | peak=72.20MB | final=0.00MB
2025-10-11 22:02:33,562 - INFO - [Shapelet 238] forward_avg=0.001543s over 26 calls | peak=126.95MB | final=0.00MB
2025-10-11 22:02:33,562 - INFO - [Shapelet 358] forward_avg=0.001640s over 26 calls | peak=169.17MB | final=0.00MB
2025-10-11 22:02:33,562 - INFO - [Shapelet 478] forward_avg=0.001699s over 26 calls | peak=193.41MB | final=0.00MB
2025-10-11 22:02:33,562 - INFO - [Shapelet 597] forward_avg=0.001714s over 26 calls | peak=199.65MB | final=0.00MB
2025-10-11 22:02:33,562 - INFO - [Shapelet 717] forward_avg=0.001639s over 26 calls | peak=193.90MB | final=0.00MB
2025-10-11 22:02:33,562 - INFO - [Shapelet 837] forward_avg=0.001588s over 26 calls | peak=170.03MB | final=0.00MB
2025-10-11 22:02:33,562 - INFO - [Shapelet 957] forward_avg=0.001567s over 26 calls | peak=129.44MB | final=0.00MB
2025-10-11 22:02:33,562 - INFO - 
🔍 COSINE modules:
2025-10-11 22:02:33,562 - INFO - [Shapelet 119] forward_avg=0.002079s over 26 calls | peak=47.22MB | final=0.00MB
2025-10-11 22:02:33,562 - INFO - [Shapelet 238] forward_avg=0.001945s over 26 calls | peak=83.85MB | final=0.00MB
2025-10-11 22:02:33,562 - INFO - [Shapelet 358] forward_avg=0.001953s over 26 calls | peak=112.15MB | final=0.00MB
2025-10-11 22:02:33,562 - INFO - [Shapelet 478] forward_avg=0.001961s over 26 calls | peak=128.13MB | final=0.00MB
2025-10-11 22:02:33,562 - INFO - [Shapelet 597] forward_avg=0.002009s over 26 calls | peak=132.11MB | final=0.00MB
2025-10-11 22:02:33,562 - INFO - [Shapelet 717] forward_avg=0.001962s over 26 calls | peak=128.09MB | final=0.00MB
2025-10-11 22:02:33,562 - INFO - [Shapelet 837] forward_avg=0.001956s over 26 calls | peak=112.07MB | final=0.00MB
2025-10-11 22:02:33,562 - INFO - [Shapelet 957] forward_avg=0.001944s over 26 calls | peak=84.51MB | final=0.00MB
2025-10-11 22:02:33,562 - INFO - 
🔍 CROSS modules:
2025-10-11 22:02:33,562 - INFO - [Shapelet 119] forward_avg=0.000463s over 26 calls
2025-10-11 22:02:33,562 - INFO - [Shapelet 238] forward_avg=0.000437s over 26 calls
2025-10-11 22:02:33,562 - INFO - [Shapelet 358] forward_avg=0.000429s over 26 calls
2025-10-11 22:02:33,563 - INFO - [Shapelet 478] forward_avg=0.000464s over 26 calls
2025-10-11 22:02:33,563 - INFO - [Shapelet 597] forward_avg=0.000479s over 26 calls
2025-10-11 22:02:33,563 - INFO - [Shapelet 717] forward_avg=0.000516s over 26 calls
2025-10-11 22:02:33,563 - INFO - [Shapelet 837] forward_avg=0.000557s over 26 calls
2025-10-11 22:02:33,563 - INFO - [Shapelet 957] forward_avg=0.000596s over 26 calls
2025-10-11 22:02:33,563 - INFO - 
💾 模型第一次反向传播阶段的显存峰值（所有模块中的最大值）: 875.64 MB
2025-10-11 22:02:33,563 - INFO - 
💾 模型初始显存: 5.08 MB
2025-10-11 22:02:33,563 - INFO - =======================================================================

2025-10-11 22:02:33,563 - INFO - torch.cuda.max_memory_reserved() : 1.033203125
2025-10-11 22:02:36,629 - INFO - Epoch 4 completed in 3.065273 seconds
2025-10-11 22:02:36,630 - INFO - torch.cuda.max_memory_reserved() : 1.033203125
2025-10-11 22:02:39,655 - INFO - Epoch 5 completed in 3.023678 seconds
2025-10-11 22:02:39,655 - INFO - torch.cuda.max_memory_reserved() : 1.033203125
2025-10-11 22:02:43,673 - INFO - Epoch 6 completed in 4.017116 seconds
2025-10-11 22:02:43,673 - INFO - torch.cuda.max_memory_reserved() : 1.033203125
2025-10-11 22:02:47,399 - INFO - Epoch 7 completed in 3.724483 seconds
2025-10-11 22:02:47,399 - INFO - torch.cuda.max_memory_reserved() : 1.033203125
2025-10-11 22:02:50,897 - INFO - Epoch 8 completed in 3.497584 seconds
2025-10-11 22:02:50,898 - INFO - torch.cuda.max_memory_reserved() : 1.033203125
2025-10-11 22:02:54,038 - INFO - Epoch 9 completed in 3.137765 seconds
2025-10-11 22:02:54,038 - INFO - torch.cuda.max_memory_reserved() : 1.033203125
2025-10-11 22:02:57,137 - INFO - Epoch 10 completed in 3.098930 seconds
2025-10-11 22:02:57,782 - INFO - torch.cuda.max_memory_reserved() : 1.033203125
2025-10-11 22:02:57,782 - INFO - !!!采用策略后的几个epoch 平均时间:3.3351254165172577
2025-10-11 22:02:57,782 - INFO - 



